158
0 101 33 12 88 41 24 137 136 90 
105 43 18 128 126 141 50 80 119 4 
134 144 129 74 82 83 30 130 107 121 
65 113 35 89 76 17 135 125 5 122 
54 7 10 64 108 84 8 142 71 23 
124 155 98 110 60 103 47 81 92 115 
154 32 37 1 44 69 116 22 58 123 
62 99 3 85 96 15 48 146 153 91 
16 86 147 2 112 40 49 55 100 106 
94 61 148 13 34 143 11 14 149 133 
72 45 36 57 150 97 42 31 102 70 
156 77 39 21 56 127 9 6 114 93 
117 139 46 19 131 27 66 138 20 79 
140 26 53 104 52 59 73 29 109 145 
152 78 25 120 118 87 95 63 151 157 
28 67 111 51 75 132 68 38 
